36
75
52	4
50	2
49	4
48	3
47	3
46	1
45	3
44	3
43	2
42	3
41	2
40	2
39	4
38	6
37	4
36	1
35	2
34	2
33	4
32	3
31	4
30	2
29	1
27	4
26	1
25	5
24	1
22	3
20	2
19	2
18	5
16	2
13	2
12	3
9	3
7	2
